n_blocks=22;
chip_width=35;
widths=[3, 3, 3, 3, 3, 3, 3, 3, 3, 3, 3, 4, 4, 4, 4, 4, 4, 4, 4, 4, 4, 14];
heights=[3, 4, 5, 6, 7, 8, 9, 10, 12, 19, 22, 3, 4, 5, 6, 7, 8, 12, 17, 20, 23, 35];
search=1;
restart=2;
chip_max_height=86;
